N: 2000
R: 1000
Capacities: 498452
------
Total value: 498452
Total weight: 498452
Packed Items: [0, 1, 2, 3, 4, 5, 6, 7, 8, 9, 10, 11, 12, 13, 14, 15, 16, 17, 18, 19, 20, 21, 22, 23, 24, 25, 26, 27, 28, 29, 30, 31, 32, 33, 34, 35, 36, 37, 38, 39, 40, 41, 42, 43, 44, 45, 46, 47, 48, 49, 50, 51, 52, 53, 54, 55, 56, 57, 58, 59, 60, 61, 62, 63, 64, 65, 66, 67, 68, 69, 70, 71, 72, 73, 74, 75, 76, 77, 78, 79, 80, 81, 82, 83, 84, 85, 86, 87, 88, 89, 90, 91, 92, 93, 94, 95, 96, 97, 98, 99, 100, 101, 102, 103, 104, 105, 106, 107, 108, 109, 110, 111, 112, 113, 114, 115, 116, 117, 118, 119, 120, 121, 122, 123, 124, 125, 126, 127, 128, 129, 130, 131, 132, 133, 134, 135, 136, 137, 138, 139, 140, 141, 142, 143, 144, 145, 146, 147, 148, 149, 150, 151, 152, 153, 154, 155, 156, 157, 158, 159, 160, 161, 162, 163, 164, 165, 166, 167, 168, 169, 170, 171, 172, 173, 174, 175, 176, 177, 178, 179, 180, 181, 182, 183, 184, 185, 186, 187, 188, 189, 190, 191, 192, 193, 194, 195, 196, 197, 198, 199, 200, 201, 202, 203, 204, 205, 206, 207, 208, 209, 210, 211, 212, 213, 214, 215, 216, 217, 218, 219, 220, 221, 222, 223, 224, 225, 226, 227, 228, 229, 230, 231, 232, 233, 234, 235, 236, 237, 238, 239, 240, 241, 242, 243, 244, 245, 246, 247, 248, 249, 250, 251, 252, 253, 254, 255, 256, 257, 258, 259, 260, 261, 262, 263, 264, 265, 266, 267, 268, 269, 270, 271, 272, 273, 274, 275, 276, 277, 278, 279, 280, 281, 282, 283, 284, 285, 286, 287, 288, 289, 290, 291, 292, 293, 294, 295, 296, 297, 298, 299, 300, 301, 302, 303, 304, 305, 306, 307, 308, 309, 310, 311, 312, 313, 314, 315, 316, 317, 318, 319, 320, 321, 322, 323, 324, 325, 326, 327, 328, 329, 330, 331, 332, 333, 334, 335, 336, 337, 338, 339, 340, 341, 342, 343, 344, 345, 346, 347, 348, 349, 350, 351, 352, 353, 354, 355, 356, 357, 358, 359, 360, 361, 362, 363, 364, 365, 366, 367, 368, 369, 370, 371, 372, 373, 374, 375, 376, 377, 378, 379, 380, 381, 382, 383, 384, 385, 386, 387, 388, 389, 390, 391, 392, 393, 394, 395, 396, 397, 398, 399, 400, 401, 402, 403, 404, 405, 406, 407, 408, 409, 410, 411, 412, 413, 414, 415, 416, 417, 418, 419, 420, 421, 422, 423, 424, 425, 426, 427, 428, 429, 430, 431, 432, 433, 434, 435, 436, 437, 438, 439, 440, 441, 442, 443, 444, 445, 446, 447, 448, 449, 450, 451, 452, 453, 454, 455, 456, 457, 458, 459, 460, 461, 462, 463, 464, 465, 466, 467, 468, 469, 470, 471, 472, 473, 474, 475, 476, 477, 478, 479, 480, 481, 482, 483, 484, 485, 486, 487, 488, 489, 490, 491, 492, 493, 494, 495, 496, 497, 498, 499, 500, 501, 502, 503, 504, 505, 506, 507, 508, 509, 510, 511, 512, 513, 514, 515, 516, 517, 518, 519, 520, 521, 522, 523, 524, 525, 526, 527, 528, 529, 530, 531, 532, 533, 534, 535, 536, 537, 538, 539, 540, 541, 542, 543, 544, 545, 546, 547, 548, 549, 550, 551, 552, 553, 554, 555, 556, 557, 558, 559, 560, 561, 562, 563, 564, 565, 566, 567, 568, 569, 570, 571, 572, 573, 574, 575, 576, 577, 578, 579, 580, 581, 582, 583, 584, 585, 586, 587, 588, 589, 590, 591, 592, 593, 594, 595, 596, 597, 598, 599, 600, 601, 602, 603, 604, 605, 606, 607, 608, 609, 610, 611, 612, 613, 614, 615, 616, 617, 618, 619, 620, 621, 622, 623, 624, 625, 626, 627, 628, 629, 630, 631, 632, 633, 634, 635, 636, 637, 638, 639, 640, 641, 642, 643, 644, 645, 646, 647, 648, 649, 650, 651, 652, 653, 654, 655, 656, 657, 658, 659, 660, 661, 662, 664, 665, 666, 667, 668, 669, 670, 671, 672, 673, 674, 675, 676, 677, 678, 679, 680, 681, 682, 683, 684, 685, 686, 687, 688, 689, 690, 691, 692, 693, 694, 695, 696, 697, 698, 699, 700, 701, 702, 703, 704, 705, 706, 707, 708, 709, 710, 711, 712, 713, 714, 715, 716, 717, 718, 719, 720, 721, 722, 723, 724, 725, 726, 727, 728, 729, 730, 731, 732, 733, 734, 735, 736, 737, 738, 739, 740, 741, 742, 743, 744, 745, 746, 747, 748, 749, 750, 751, 752, 753, 754, 755, 756, 757, 758, 759, 760, 761, 762, 763, 764, 765, 766, 767, 768, 769, 770, 771, 772, 773, 774, 775, 776, 777, 778, 779, 780, 781, 782, 783, 784, 785, 786, 787, 788, 789, 790, 791, 792, 793, 794, 795, 796, 797, 798, 799, 800, 801, 802, 803, 804, 805, 806, 807, 808, 809, 810, 811, 812, 813, 814, 815, 816, 817, 818, 819, 820, 821, 822, 823, 824, 825, 826, 827, 828, 829, 830, 831, 832, 833, 834, 835, 836, 837, 838, 839, 840, 841, 842, 843, 844, 845, 846, 847, 848, 849, 850, 851, 852, 853, 854, 855, 856, 857, 858, 859, 860, 861, 862, 863, 864, 865, 866, 867, 868, 869, 870, 871, 872, 873, 874, 875, 876, 877, 878, 879, 880, 881, 882, 883, 884, 885, 886, 887, 888, 889, 890, 891, 892, 893, 894, 895, 896, 897, 898, 899, 900, 901, 902, 903, 904, 905, 906, 907, 908, 909, 910, 911, 912, 913, 914, 915, 916, 917, 918, 919, 920, 921, 922, 923, 924, 925, 926, 927, 928, 929, 930, 931, 932, 933, 934, 935, 936, 937, 938, 939, 940, 941, 942, 943, 944, 945, 946, 947, 948, 949, 950, 951, 952, 953, 954, 955, 956, 957, 958, 959, 960, 961, 962, 963, 964, 965, 966, 967, 968, 969, 970, 971, 972, 973, 974, 975, 976, 977, 978, 979, 980, 981, 982, 983, 984, 985, 986, 987, 988, 989, 990, 991, 992, 994, 997, 998, 999, 1000, 1001, ]
Packed Weights: [845, 758, 421, 259, 512, 405, 784, 304, 477, 584, 909, 505, 282, 756, 619, 251, 910, 983, 811, 903, 311, 730, 899, 684, 473, 101, 435, 611, 914, 967, 478, 866, 261, 806, 549, 15, 720, 399, 825, 669, 2, 494, 868, 244, 326, 871, 192, 568, 239, 968, 804, 448, 81, 321, 508, 933, 110, 552, 707, 548, 815, 541, 964, 604, 588, 445, 597, 385, 576, 291, 190, 187, 613, 657, 477, 90, 758, 877, 924, 843, 899, 924, 541, 392, 706, 276, 812, 850, 896, 590, 950, 580, 451, 661, 997, 917, 794, 83, 613, 487, 631, 846, 244, 732, 118, 221, 795, 333, 816, 101, 147, 698, 46, 574, 911, 535, 681, 27, 635, 607, 576, 392, 371, 981, 37, 22, 962, 185, 124, 211, 801, 937, 23, 426, 102, 260, 221, 647, 351, 181, 504, 40, 101, 989, 200, 359, 732, 839, 919, 170, 673, 967, 59, 677, 846, 343, 251, 597, 443, 175, 472, 410, 570, 509, 312, 358, 838, 251, 561, 13, 742, 336, 46, 281, 241, 954, 353, 288, 360, 947, 634, 622, 716, 389, 415, 651, 2, 193, 335, 240, 638, 379, 876, 569, 415, 403, 702, 419, 663, 47, 446, 260, 158, 528, 488, 562, 756, 884, 495, 313, 467, 810, 876, 813, 189, 1000, 634, 84, 726, 987, 402, 679, 317, 214, 718, 3, 823, 529, 98, 119, 650, 874, 280, 979, 101, 854, 397, 82, 275, 453, 793, 862, 134, 521, 651, 348, 872, 279, 19, 41, 681, 559, 947, 939, 910, 43, 750, 702, 656, 713, 903, 641, 373, 538, 208, 588, 9, 152, 334, 790, 719, 339, 621, 42, 164, 982, 290, 395, 549, 294, 479, 240, 49, 180, 524, 71, 404, 329, 415, 100, 909, 475, 841, 977, 344, 480, 700, 427, 302, 735, 895, 920, 627, 376, 975, 639, 66, 85, 750, 62, 8, 394, 520, 449, 489, 585, 680, 424, 369, 989, 261, 778, 432, 359, 64, 864, 703, 904, 452, 677, 119, 398, 208, 43, 948, 216, 147, 198, 379, 547, 152, 989, 983, 149, 406, 680, 878, 496, 918, 323, 499, 499, 671, 202, 610, 219, 341, 963, 900, 819, 36, 149, 257, 785, 843, 583, 719, 808, 67, 85, 869, 40, 226, 41, 16, 844, 331, 161, 149, 657, 969, 505, 902, 503, 574, 679, 806, 758, 991, 747, 906, 207, 536, 599, 826, 483, 792, 389, 587, 852, 799, 657, 1, 182, 507, 255, 66, 860, 943, 303, 409, 811, 63, 641, 128, 288, 830, 56, 36, 418, 492, 864, 718, 674, 152, 987, 412, 612, 387, 48, 471, 152, 33, 618, 630, 106, 550, 347, 384, 777, 491, 882, 611, 468, 633, 338, 125, 683, 623, 789, 128, 912, 800, 917, 873, 682, 811, 520, 786, 190, 783, 445, 757, 456, 790, 76, 45, 935, 487, 902, 945, 667, 572, 216, 94, 820, 889, 780, 699, 421, 306, 114, 426, 567, 923, 936, 416, 100, 774, 735, 31, 447, 687, 31, 920, 963, 723, 79, 71, 360, 30, 348, 10, 975, 820, 71, 894, 208, 205, 674, 939, 124, 8, 370, 25, 605, 860, 187, 113, 345, 960, 131, 967, 363, 474, 293, 938, 959, 636, 185, 993, 103, 581, 157, 898, 946, 805, 316, 243, 755, 292, 420, 47, 133, 21, 78, 74, 421, 551, 741, 143, 423, 637, 85, 445, 370, 949, 58, 409, 418, 729, 321, 204, 294, 471, 951, 797, 277, 559, 689, 796, 447, 399, 768, 432, 248, 454, 938, 143, 463, 638, 484, 204, 2, 699, 619, 8, 299, 769, 629, 546, 157, 707, 472, 679, 761, 233, 762, 281, 985, 121, 884, 41, 257, 527, 582, 397, 103, 253, 284, 756, 909, 596, 36, 793, 306, 340, 531, 250, 920, 164, 415, 290, 520, 574, 628, 532, 411, 635, 404, 779, 789, 293, 372, 629, 158, 698, 382, 592, 140, 669, 355, 473, 416, 477, 695, 319, 653, 61, 301, 746, 53, 622, 26, 472, 889, 11, 527, 67, 868, 687, 742, 670, 42, 621, 1000, 874, 700, 728, 227, 752, 288, 106, 461, 331, 169, 422, 898, 436, 448, 709, 525, 130, 911, 445, 790, 389, 807, 390, 221, 197, 941, 587, 50, 389, 235, 85, 187, 57, 639, 174, 611, 613, 705, 513, 285, 878, 354, 459, 632, 517, 957, 955, 930, 935, 581, 491, 705, 216, 266, 44, 163, 4, 655, 141, 787, 681, 971, 397, 922, 454, 340, 103, 883, 795, 323, 456, 326, 29, 45, 369, 210, 525, 188, 202, 673, 736, 313, 860, 255, 344, 713, 45, 935, 73, 461, 725, 48, 810, 979, 461, 119, 82, 99, 766, 415, 920, 441, 78, 427, 755, 830, 40, 181, 491, 129, 872, 935, 320, 435, 558, 286, 542, 202, 297, 442, 605, 537, 261, 232, 119, 784, 99, 733, 249, 285, 737, 660, 742, 516, 860, 122, 646, 119, 738, 359, 675, 704, 661, 222, 832, 241, 519, 675, 234, 629, 287, 172, 810, 554, 328, 586, 26, 130, 396, 976, 511, 77, 766, 782, 775, 570, 696, 214, 733, 817, 760, 354, 592, 629, 901, 109, 834, 527, 359, 456, 13, 221, 653, 661, 495, 954, 481, 314, 848, 260, 605, 704, 822, 786, 385, 60, 39, 727, 962, 344, 442, 726, 658, 261, 672, 305, 357, 540, 733, 152, 22, 628, 25, 45, 226, 654, 67, 63, 973, 423, 893, 217, 436, 359, 177, 329, 987, 748, 383, 410, 264, 532, 736, 687, 463, 42, 922, 409, 391, 4, 139, 869, 514, 733, 149, 331, 841, 821, 247, 22, 807, 169, 788, 684, 169, 79, 928, 598, 621, 458, 151, 602, 253, 806, 733, 28, 933, 37, 90, 293, 151, 237, 356, 736, 405, 270, 493, 393, 311, 901, 551, 978, 773, 571, 263, 687, 456, 722, 404, 497, 21, 740, 35, 681, 583, 776, 290, 687, 208, 530, 341, 979, 972, 209, 567, 330, 969, 925, 587, 721, 682, 354, 917, 900, 331, 748, 10, 817, 565, 953, 364, 626, 324, 783, 601, 988, 141, 930, 949, 481, 947, 819, ]
Time Consuming: 0.01700115203857422